Gurobi Optimizer version 9.1.2 build v9.1.2rc0 (linux64)
Thread count: 36 physical cores, 72 logical processors, using up to 32 threads
Optimize a model with 12 rows, 57 columns and 590 nonzeros
Model fingerprint: 0xf32eec78
Model has 47 quadratic constraints
Coefficient statistics:
  Matrix range     [2e-05, 3e+00]
  QMatrix range    [1e+00, 1e+00]
  QLMatrix range   [1e+00, 1e+00]
  Objective range  [8e-03, 7e-01]
  Bounds range     [1e+00, 1e+00]
  RHS range        [1e+00, 1e+00]
Presolve removed 9 rows and 0 columns

Continuous model is non-convex -- solving as a MIP.

Presolve removed 9 rows and 0 columns
Presolve time: 0.00s
Presolved: 189 rows, 57 columns, 443 nonzeros
Presolved model has 47 bilinear constraint(s)
Variable types: 57 continuous, 0 integer (0 binary)

Root relaxation: objective -1.743721e+00, 44 iterations, 0.00 seconds

    Nodes    |    Current Node    |     Objective Bounds      |     Work
 Expl Unexpl |  Obj  Depth IntInf | Incumbent    BestBd   Gap | It/Node Time

     0     0   -1.74372    0   38          -   -1.74372      -     -    0s
H    0     0                       0.6147548   -1.74372   384%     -    0s
     0     0   -1.64739    0    1    0.61475   -1.64739   368%     -    0s
H    0     0                      -1.6450460   -1.64739  0.14%     -    0s
     0     0     cutoff    0        -1.64505   -1.64505  0.00%     -    0s

Cutting planes:
  RLT: 25
  BQP: 3

Explored 1 nodes (76 simplex iterations) in 0.01 seconds
Thread count was 32 (of 72 available processors)

Solution count 2: -1.64505 0.614755 
No other solutions better than -1.64505

Optimal solution found (tolerance 1.00e-04)
Best objective -1.645045978473e+00, best bound -1.645045978473e+00, gap 0.0000%

User-callback calls 78, time in user-callback 0.00 sec
Gurobi Optimizer version 9.1.2 build v9.1.2rc0 (linux64)
Thread count: 36 physical cores, 72 logical processors, using up to 32 threads
Optimize a model with 24 rows, 125 columns and 2580 nonzeros
Model fingerprint: 0x23a696d2
Model has 105 quadratic constraints
Coefficient statistics:
  Matrix range     [6e-06, 5e+01]
  QMatrix range    [1e+00, 1e+00]
  QLMatrix range   [1e+00, 1e+00]
  Objective range  [9e-03, 1e+00]
  Bounds range     [1e+00, 1e+00]
  RHS range        [1e+00, 1e+00]
Presolve removed 11 rows and 0 columns

Continuous model is non-convex -- solving as a MIP.

Presolve removed 11 rows and 0 columns
Presolve time: 0.00s
Presolved: 428 rows, 125 columns, 2018 nonzeros
Presolved model has 105 bilinear constraint(s)
Variable types: 125 continuous, 0 integer (0 binary)

Root relaxation: objective -5.540706e+00, 155 iterations, 0.00 seconds

    Nodes    |    Current Node    |     Objective Bounds      |     Work
 Expl Unexpl |  Obj  Depth IntInf | Incumbent    BestBd   Gap | It/Node Time

     0     0   -5.54071    0   75          -   -5.54071      -     -    0s
H    0     0                       0.2922692   -5.54071  1996%     -    0s
     0     0   -4.20179    0   83    0.29227   -4.20179  1538%     -    0s
H    0     0                      -0.9418554   -4.20179   346%     -    0s
     0     0   -4.19545    0   83   -0.94186   -4.19545   345%     -    0s
     0     0   -3.94998    0   88   -0.94186   -3.94998   319%     -    0s
H    0     0                      -1.7228751   -3.94998   129%     -    0s
     0     0   -3.94880    0   88   -1.72288   -3.94880   129%     -    0s
     0     0   -3.91400    0   78   -1.72288   -3.91400   127%     -    0s
     0     0   -3.91309    0   78   -1.72288   -3.91309   127%     -    0s
     0     0   -3.90974    0   78   -1.72288   -3.90974   127%     -    0s
     0     0   -3.90868    0   78   -1.72288   -3.90868   127%     -    0s
     0     0   -3.90738    0   78   -1.72288   -3.90738   127%     -    0s
H    0     0                      -2.4941222   -3.90738  56.7%     -    0s
H    0     0                      -2.6011030   -3.90738  50.2%     -    0s
H    0     0                      -2.6129753   -3.90738  49.5%     -    0s
     0     2   -3.90738    0   78   -2.61298   -3.90738  49.5%     -    0s
*  781   722              29      -3.0743185   -3.39300  10.4%  26.5    0s
*  976   728              21      -3.0809007   -3.37834  9.65%  23.4    0s
* 1005   728              27      -3.0866511   -3.37834  9.45%  22.9    0s
* 1099   896              23      -3.2020125   -3.37834  5.51%  21.7    0s
* 1112   896              25      -3.2666696   -3.37834  3.42%  21.6    0s
* 1345   850              22      -3.2759441   -3.30981  1.03%  19.4    0s
* 1348   850              24      -3.2759502   -3.30981  1.03%  19.3    0s
* 1548   761              21      -3.2761023   -3.30981  1.03%  17.4    0s
* 1549   761              21      -3.2761058   -3.30981  1.03%  17.4    0s
* 1577   761              24      -3.2762543   -3.30981  1.02%  17.2    0s
* 1610   761              22      -3.2763071   -3.28508  0.27%  17.0    0s
* 1623   761              24      -3.2780591   -3.28508  0.21%  16.9    0s
* 1683   761              18      -3.2782799   -3.28508  0.21%  16.4    0s
* 1889   462              24      -3.2786364   -3.27916  0.02%  14.9    0s
* 2245    68              20      -3.2786380   -3.27894  0.01%  12.8    0s
* 2261    68              24      -3.2786519   -3.27880  0.00%  12.7    0s
* 2279    68              21      -3.2786537   -3.27879  0.00%  12.7    0s
* 2280    68              21      -3.2786591   -3.27879  0.00%  12.6    0s
* 2286    68              24      -3.2786602   -3.27879  0.00%  12.6    0s

Cutting planes:
  RLT: 61
  BQP: 6
  PSD: 68

Explored 2687 nodes (29249 simplex iterations) in 0.62 seconds
Thread count was 32 (of 72 available processors)

Solution count 10: -3.27866 -3.27866 -3.27865 ... -3.27611

Optimal solution found (tolerance 1.00e-04)
Best objective -3.278660165686e+00, best bound -3.278788300912e+00, gap 0.0039%

User-callback calls 5644, time in user-callback 0.00 sec



objective value: -3.2786601656862033
objective bound: -3.2787883009122707
x_opt: [1.0, 0.0, 1.0, 0.0, 0.20086750413701754, 0.0, 1.0, 1.0, 0.45103512489871167, 0.0, 0.0, 0.0, 0.7996283191730711, 0.0, 0.4553645827462578, 0.32087811561724544, 0.0, 0.0, 0.0, 0.0]
GUROBI solution time: 0.6194849014282227




